n = 20;

R =
[|0,0,1,0,3,3,3,0,0,0,0,0,0,1,0,0,0,0,0,10,
 |0,0,0,0,0,5,5,5,5,5,0,0,0,0,0,4,4,4,4,10,
 |0,0,0,9,9,9,9,9,9,9,9,9,0,0,0,0,0,0,0,10,
 |0,8,8,8,8,8,8,8,8,2,2,2,0,0,0,0,0,0,0,10,
 |0,0,0,1,0,3,3,3,0,2,0,0,0,0,0,0,0,0,0,10,
 |0,4,4,4,4,0,0,0,0,0,0,5,5,5,5,5,0,0,0,10,
 |6,6,6,6,6,6,0,0,0,5,0,0,0,0,0,0,0,0,0,10,
 |3,3,3,2,2,0,2,0,0,5,0,7,7,7,7,7,7,7,7,10,
 |0,0,0,1,0,0,2,0,10,5,0,0,0,0,0,0,0,0,7,10,
 |0,0,0,0,0,0,0,0,10,5,1,6,6,6,6,6,6,0,7,10,
 |0,0,0,4,0,0,0,0,10,5,0,0,5,0,0,0,0,0,7,0,
 |0,0,0,4,0,0,0,8,10,0,0,0,5,0,0,0,0,0,7,0,
 |0,0,0,4,0,0,1,8,10,0,0,0,5,0,0,0,0,0,7,0,
 |0,0,0,4,0,0,2,8,10,0,1,5,5,0,2,0,1,0,7,0,
 |0,0,0,0,0,0,2,8,10,0,5,5,5,0,2,0,0,0,0,0,
 |0,0,0,4,0,0,0,8,10,0,5,5,0,0,0,0,0,0,0,0,
 |0,2,1,4,0,0,0,8,10,0,5,5,0,0,0,0,0,0,0,0,
 |0,2,0,4,0,0,0,8,10,0,5,5,0,0,0,0,0,0,0,0,
 |0,0,0,4,0,0,0,8,0,0,5,0,0,5,5,5,5,5,0,0,
 |6,6,6,6,6,6,0,0,0,0,0,0,0,0,0,0,0,0,0,0,
 |];

